NAME : cgl_37.4883.tour
COMMENT : Length = 4883
COMMENT : Found by LKH-3 [Keld Helsgaun] Fri Nov  8 17:38:18 2024
TYPE : TOUR
DIMENSION : 38
TOUR_SECTION
30
28
29
27
26
32
33
35
36
37
25
24
23
21
22
19
20
14
11
12
18
16
17
15
13
9
10
6
5
7
4
8
3
1
2
38
34
31
-1
EOF
